unsat
( _c0
  _c1
  _c1000
  _c1001
  _c1002
  _c1003
  _c1004
  _c1005
  _c1006
  _c1007
  _c1008
  _c1009
  _c1010
  _c1011
  _c1012
  _c1013
  _c1014
  _c1015
  _c1016
  _c1017
  _c1018
  _c1019
  _c102
  _c1020
  _c1021
  _c1022
  _c1023
  _c1024
  _c1025
  _c1026
  _c1027
  _c1028
  _c1029
  _c1030
  _c1031
  _c1032
  _c1033
  _c1034
  _c1035
  _c1036
  _c1037
  _c1038
  _c1039
  _c1040
  _c1041
  _c1042
  _c1043
  _c1044
  _c1045
  _c1046
  _c1047
  _c1048
  _c1049
  _c1050
  _c1051
  _c1052
  _c1053
  _c1054
  _c1064
  _c1074
  _c1084
  _c1094
  _c11
  _c1104
  _c1114
  _c112
  _c1124
  _c1134
  _c1135
  _c1145
  _c1155
  _c1165
  _c1175
  _c1185
  _c1195
  _c1205
  _c1215
  _c1216
  _c122
  _c1226
  _c1236
  _c1246
  _c1256
  _c1266
  _c1276
  _c1279
  _c1286
  _c1296
  _c1297
  _c1298
  _c1299
  _c1300
  _c1301
  _c1302
  _c1303
  _c1304
  _c1305
  _c1306
  _c1307
  _c1308
  _c1309
  _c1310
  _c1311
  _c1312
  _c1313
  _c1314
  _c1315
  _c1316
  _c1317
  _c1318
  _c1319
  _c132
  _c1320
  _c1321
  _c1322
  _c1323
  _c1324
  _c1325
  _c1326
  _c1327
  _c1328
  _c1329
  _c1330
  _c1331
  _c1332
  _c1333
  _c1334
  _c1335
  _c1336
  _c1337
  _c1338
  _c1339
  _c1340
  _c1341
  _c1342
  _c1343
  _c1344
  _c1345
  _c1346
  _c1347
  _c1348
  _c1349
  _c1350
  _c142
  _c152
  _c162
  _c163
  _c21
  _c254
  _c31
  _c345
  _c41
  _c436
  _c51
  _c527
  _c61
  _c618
  _c709
  _c71
  _c737
  _c800
  _c81
  _c82
  _c891
  _c892
  _c902
  _c912
  _c92
  _c922
  _c932
  _c942
  _c952
  _c955
  _c962
  _c972
  _c973
  _c974
  _c975
  _c976
  _c977
  _c978
  _c979
  _c980
  _c981
  _c982
  _c983
  _c984
  _c985
  _c986
  _c987
  _c988
  _c989
  _c990
  _c991
  _c992
  _c993
  _c994
  _c995
  _c996
  _c997
  _c998
  _c999 )
